qbf_easy_train/easy_4512_SAT.qdimacs
p cnf 22 53
a 1 2 0
e 3 4 5 6 7 8 9 10 11 12 13 14 15 16 17 18 19 20 21 22 0
-1 -2 -3 0
1 2 -3 0
-1 2 3 0
1 -2 3 0
5 -3 0
5 -4 0
3 4 -5 0
-4 6 -7 0
4 -6 -7 0
-4 -6 7 0
4 6 7 0
-5 -7 -8 0
5 7 -8 0
-5 7 8 0
5 -7 8 0
-9 -6 0
-9 1 0
6 -1 9 0
10 -6 0
10 -9 0
6 9 -10 0
-11 9 0
-11 9 0
-9 11 0
9 11 -12 0
-9 -11 -12 0
9 -11 12 0
-9 11 12 0
-13 10 0
-13 -12 0
-10 12 13 0
-14 -15 -16 0
14 15 -16 0
-14 15 16 0
14 -15 16 0
-19 -17 0
-19 -18 0
17 18 19 0
20 -16 0
20 -19 0
16 19 -20 0
-21 13 0
-21 -20 0
-13 20 21 0
22 8 0
22 21 0
-8 -21 -22 0
-3 -4 13 21 0
-9 19 -21 -18 16 -15 -11 -7 0
-9 2 11 0
-17 -15 16 -2 0
20 17 0
22 0
