sat_easy_train/easy_4512_SAT.dimacs
p cnf 132 448
-4 2 0
-4 -3 0
-2 3 4 0
-5 1 0
-5 4 0
-1 -4 5 0
-9 -7 0
-9 8 0
7 -8 9 0
-6 -9 -10 0
6 9 -10 0
-6 9 10 0
6 -9 10 0
11 -7 -12 0
-11 7 -12 0
11 7 12 0
-11 -7 12 0
14 -12 0
14 13 0
12 -13 -14 0
10 -14 -15 0
-10 14 -15 0
10 14 15 0
-10 -14 15 0
16 5 0
16 -15 0
-5 15 -16 0
-9 18 -19 0
9 -18 -19 0
-9 -18 19 0
9 18 19 0
-17 19 -20 0
17 -19 -20 0
-17 -19 20 0
17 19 20 0
21 20 0
21 -3 0
-20 3 -21 0
23 -22 0
23 -13 0
22 13 -23 0
24 -11 0
24 -23 0
11 23 -24 0
26 24 0
26 -25 0
-24 25 -26 0
-27 21 0
-27 26 0
-21 -26 27 0
-28 -19 0
-28 11 0
19 -11 28 0
-29 -28 0
-29 -18 0
28 18 29 0
6 -7 -30 0
-6 7 -30 0
6 7 30 0
-6 -7 30 0
31 29 0
31 -30 0
-29 30 -31 0
-23 -31 -32 0
23 31 -32 0
-23 31 32 0
23 -31 32 0
32 -9 -33 0
-32 9 -33 0
32 9 33 0
-32 -9 33 0
34 -33 0
34 26 0
33 -26 -34 0
-27 -34 -35 0
27 34 -35 0
-27 34 35 0
27 -34 35 0
-36 1 0
-36 -8 0
-1 8 36 0
-37 -36 0
-37 -31 0
36 31 37 0
38 37 0
38 -31 0
-37 31 -38 0
-40 39 0
-40 -36 0
-39 36 40 0
-41 -17 0
-41 40 0
17 -40 41 0
-38 -41 -42 0
38 41 -42 0
-38 41 42 0
38 -41 42 0
17 12 -44 0
-17 -12 -44 0
17 -12 44 0
-17 12 44 0
45 43 0
45 44 0
-43 -44 -45 0
46 42 0
46 45 0
-42 -45 -46 0
47 14 0
47 -40 0
-14 40 -47 0
44 -47 -48 0
-44 47 -48 0
44 47 48 0
-44 -47 48 0
49 -46 0
49 -48 0
46 48 -49 0
50 13 0
50 -6 0
-13 6 -50 0
-51 14 0
-51 -50 0
-14 50 51 0
51 20 -52 0
-51 -20 -52 0
51 -20 52 0
-51 20 52 0
53 -14 0
53 8 0
14 -8 -53 0
-54 29 0
-54 22 0
-29 -22 54 0
-53 54 -55 0
53 -54 -55 0
-53 -54 55 0
53 54 55 0
-56 52 0
-56 -55 0
-52 55 56 0
49 -56 -57 0
-49 56 -57 0
49 56 57 0
-49 -56 57 0
58 35 0
58 -57 0
-35 57 -58 0
-59 -12 0
-59 -25 0
12 25 59 0
10 11 -60 0
-10 -11 -60 0
10 -11 60 0
-10 11 60 0
-59 -60 -61 0
59 60 -61 0
-59 60 61 0
59 -60 61 0
62 -25 0
62 11 0
25 -11 -62 0
-63 62 0
-63 29 0
-62 -29 63 0
64 -61 0
64 -63 0
61 63 -64 0
58 64 -65 0
-58 -64 -65 0
58 -64 65 0
-58 64 65 0
66 -16 0
66 -65 0
16 65 -66 0
-67 -26 0
-67 -19 0
26 19 67 0
-39 19 -68 0
39 -19 -68 0
-39 -19 68 0
39 19 68 0
69 -67 0
69 -68 0
67 68 -69 0
66 -69 -70 0
-66 69 -70 0
66 69 70 0
-66 -69 70 0
71 7 0
71 11 0
-7 -11 -71 0
72 71 0
72 62 0
-71 -62 -72 0
30 25 -73 0
-30 -25 -73 0
30 -25 73 0
-30 25 73 0
74 -72 0
74 -73 0
72 73 -74 0
74 -71 -75 0
-74 71 -75 0
74 71 75 0
-74 -71 75 0
-76 -32 0
-76 13 0
32 -13 76 0
-75 76 -77 0
75 -76 -77 0
-75 -76 77 0
75 76 77 0
30 25 -78 0
-30 -25 -78 0
30 -25 78 0
-30 25 78 0
-79 60 0
-79 8 0
-60 -8 79 0
-80 -78 0
-80 79 0
78 -79 80 0
21 -6 -81 0
-21 6 -81 0
21 6 81 0
-21 -6 81 0
82 81 0
82 -74 0
-81 74 -82 0
-83 -62 0
-83 -10 0
62 10 83 0
44 -19 -84 0
-44 19 -84 0
44 19 84 0
-44 -19 84 0
-85 83 0
-85 84 0
-83 -84 85 0
20 18 -86 0
-20 -18 -86 0
20 -18 86 0
-20 18 86 0
87 -4 0
87 86 0
4 -86 -87 0
85 -87 -88 0
-85 87 -88 0
85 87 88 0
-85 -87 88 0
89 -43 0
89 -88 0
43 88 -89 0
-90 -30 0
-90 -11 0
30 11 90 0
91 90 0
91 3 0
-90 -3 -91 0
89 91 -92 0
-89 -91 -92 0
89 -91 92 0
-89 91 92 0
93 82 0
93 -92 0
-82 92 -93 0
-94 80 0
-94 -93 0
-80 93 94 0
-32 -30 -95 0
32 30 -95 0
-32 30 95 0
32 -30 95 0
-96 94 0
-96 -95 0
-94 95 96 0
-98 -97 0
-98 30 0
97 -30 98 0
31 26 -99 0
-31 -26 -99 0
31 -26 99 0
-31 26 99 0
-100 -98 0
-100 99 0
98 -99 100 0
101 -19 0
101 14 0
19 -14 -101 0
-102 -13 0
-102 -40 0
13 40 102 0
103 102 0
103 -26 0
-102 26 -103 0
-104 -101 0
-104 -103 0
101 103 104 0
-105 100 0
-105 -104 0
-100 104 105 0
106 -90 0
106 -32 0
90 32 -106 0
107 106 0
107 -72 0
-106 72 -107 0
109 102 0
109 2 0
-102 -2 -109 0
110 -108 0
110 109 0
108 -109 -110 0
111 107 0
111 110 0
-107 -110 -111 0
-20 71 -112 0
20 -71 -112 0
-20 -71 112 0
20 71 112 0
-22 -26 -113 0
22 26 -113 0
-22 26 113 0
22 -26 113 0
112 -113 -114 0
-112 113 -114 0
112 113 114 0
-112 -113 114 0
115 114 0
115 -81 0
-114 81 -115 0
116 111 0
116 -115 0
-111 115 -116 0
-105 -116 -117 0
105 116 -117 0
-105 116 117 0
105 -116 117 0
-118 -96 0
-118 -117 0
96 117 118 0
119 4 0
119 23 0
-4 -23 -119 0
-120 37 0
-120 18 0
-37 -18 120 0
121 8 0
121 -50 0
-8 50 -121 0
-120 -121 -122 0
120 121 -122 0
-120 121 122 0
120 -121 122 0
122 19 -123 0
-122 -19 -123 0
122 -19 123 0
-122 19 123 0
-124 22 0
-124 -24 0
-22 24 124 0
-18 -124 -125 0
18 124 -125 0
-18 124 125 0
18 -124 125 0
126 -44 0
126 24 0
44 -24 -126 0
125 -126 -127 0
-125 126 -127 0
125 126 127 0
-125 -126 127 0
123 127 -128 0
-123 -127 -128 0
123 -127 128 0
-123 127 128 0
-129 -119 0
-129 -128 0
119 128 129 0
130 -118 0
130 129 0
118 -129 -130 0
-131 -77 0
-131 130 0
77 -130 131 0
-70 131 -132 0
70 -131 -132 0
-70 -131 132 0
70 131 132 0
13 27 66 0
65 8 0
77 88 -41 125 23 0
-40 -82 -106 0
-73 -48 -33 -37 0
111 -18 72 0
15 52 -29 -110 14 85 0
71 112 -83 36 -93 -113 0
-125 26 -32 -12 0
54 119 51 34 39 -31 0
-51 6 0
114 -88 0
-129 59 -119 -104 0
75 11 0
-92 3 -94 -104 -33 58 0
83 2 110 -17 68 0
31 -86 65 97 0
90 66 -86 0
24 26 -92 -34 -115 105 0
64 -93 72 106 0
-73 105 110 0
-129 -132 82 0
20 -31 75 -38 0
-40 -10 -68 0
63 -68 -114 0
60 -7 0
70 -117 0
-91 82 -61 132 0
-85 90 65 -115 13 0
38 -23 -6 64 53 0
-39 72 102 13 0
-102 -1 -93 -73 37 0
-40 -22 -102 6 0
-36 -27 0
34 85 -99 -28 -36 0
50 -72 56 102 0
-116 -109 9 -13 -19 0
118 -7 -117 -16 0
9 50 44 53 64 -12 0
-17 113 -2 63 -11 -56 0
-105 -90 -62 0
16 98 106 0
-16 116 0
-53 -54 -26 -101 -100 0
-81 54 0
-131 -117 56 12 49 65 0
-54 -57 0
-38 110 -71 0
81 -56 0
-46 54 91 -72 0
-112 -90 77 24 0
-56 -110 103 0
116 42 0
-92 26 -15 -113 0
89 116 91 0
113 27 0
104 -70 10 -128 0
-122 116 0
132 0
